-337.0 10.0 9.0 9.0 8.0 2.0 9.0 7.0 6.0 0.0 2.0 4.0 10.0 0.0 7.0 8.0 5.0 10.0 4.0 8.0 10.0 3.0 5.0 5.0 10.0 10.0 6.0 6.0 9.0 9.0 9.0 6.0 9.0 8.0 6.0 0.0 9.0 0.0 4.0 2.0 10.0 8.0 0.0 7.0 3.0 7.0 8.0 6.0 6.0 3.0 0.0 8.0 1.0 2.0 2.0 3.0 5.0 5.0 9.0 
10.0 -264.0 1.0 8.0 8.0 7.0 9.0 2.0 1.0 7.0 1.0 8.0 6.0 8.0 8.0 8.0 6.0 5.0 3.0 7.0 4.0 9.0 1.0 2.0 6.0 2.0 6.0 6.0 6.0 8.0 8.0 3.0 10.0 3.0 9.0 2.0 3.0 8.0 5.0 4.0 8.0 9.0 1.0 3.0 7.0 2.0 1.0 5.0 1.0 6.0 1.0 1.0 1.0 0.0 0.0 0.0 0.0 0.0 0.0 
9.0 1.0 -291.0 1.0 8.0 3.0 1.0 8.0 5.0 7.0 2.0 10.0 3.0 1.0 6.0 5.0 0.0 2.0 2.0 7.0 7.0 1.0 6.0 6.0 4.0 1.0 0.0 7.0 7.0 7.0 10.0 8.0 6.0 6.0 5.0 8.0 9.0 2.0 5.0 6.0 5.0 0.0 8.0 9.0 3.0 8.0 10.0 0.0 0.0 6.0 3.0 8.0 3.0 6.0 6.0 9.0 9.0 0.0 6.0 
9.0 8.0 1.0 -302.0 10.0 3.0 6.0 10.0 5.0 4.0 2.0 7.0 6.0 1.0 1.0 9.0 6.0 0.0 3.0 4.0 6.0 3.0 7.0 4.0 8.0 6.0 10.0 1.0 8.0 4.0 1.0 5.0 9.0 1.0 10.0 9.0 6.0 7.0 0.0 4.0 1.0 1.0 7.0 2.0 4.0 2.0 0.0 8.0 3.0 10.0 9.0 6.0 7.0 4.0 10.0 8.0 8.0 8.0 0.0 
8.0 8.0 8.0 10.0 -328.0 6.0 10.0 5.0 6.0 9.0 5.0 6.0 2.0 6.0 8.0 6.0 5.0 10.0 8.0 9.0 3.0 9.0 0.0 5.0 1.0 0.0 7.0 7.0 1.0 8.0 9.0 1.0 7.0 4.0 6.0 9.0 4.0 5.0 2.0 10.0 9.0 0.0 5.0 8.0 0.0 3.0 8.0 8.0 9.0 9.0 5.0 3.0 1.0 1.0 10.0 2.0 8.0 1.0 5.0 
2.0 7.0 3.0 3.0 6.0 -293.0 0.0 0.0 9.0 1.0 1.0 7.0 5.0 3.0 5.0 7.0 6.0 5.0 8.0 0.0 3.0 7.0 0.0 8.0 1.0 5.0 7.0 6.0 6.0 5.0 9.0 9.0 4.0 8.0 7.0 6.0 7.0 9.0 1.0 5.0 0.0 5.0 9.0 8.0 4.0 4.0 5.0 7.0 7.0 5.0 7.0 9.0 2.0 9.0 3.0 4.0 5.0 3.0 6.0 
9.0 9.0 1.0 6.0 10.0 0.0 -277.0 2.0 9.0 1.0 6.0 6.0 0.0 1.0 5.0 1.0 9.0 8.0 5.0 1.0 4.0 4.0 6.0 6.0 4.0 8.0 0.0 1.0 8.0 3.0 4.0 6.0 5.0 10.0 2.0 0.0 3.0 6.0 10.0 2.0 3.0 4.0 8.0 5.0 3.0 10.0 1.0 4.0 7.0 9.0 7.0 2.0 0.0 10.0 5.0 7.0 2.0 1.0 8.0 
7.0 2.0 8.0 10.0 5.0 0.0 2.0 -270.0 8.0 3.0 1.0 5.0 6.0 3.0 3.0 0.0 6.0 1.0 10.0 4.0 10.0 3.0 9.0 4.0 0.0 9.0 9.0 9.0 5.0 5.0 7.0 2.0 1.0 6.0 8.0 3.0 8.0 7.0 0.0 1.0 5.0 1.0 1.0 6.0 5.0 7.0 7.0 3.0 2.0 1.0 0.0 9.0 8.0 1.0 7.0 7.0 3.0 2.0 5.0 
6.0 1.0 5.0 5.0 6.0 9.0 9.0 8.0 -319.0 7.0 9.0 2.0 0.0 6.0 7.0 1.0 1.0 3.0 0.0 10.0 7.0 8.0 5.0 1.0 1.0 6.0 10.0 7.0 3.0 6.0 9.0 10.0 6.0 3.0 8.0 10.0 10.0 7.0 6.0 3.0 9.0 0.0 7.0 3.0 3.0 3.0 8.0 7.0 0.0 5.0 10.0 2.0 3.0 8.0 1.0 7.0 6.0 7.0 9.0 
0.0 7.0 7.0 4.0 9.0 1.0 1.0 3.0 7.0 -287.0 5.0 4.0 0.0 6.0 8.0 7.0 1.0 10.0 0.0 1.0 9.0 7.0 7.0 0.0 4.0 6.0 2.0 8.0 7.0 4.0 3.0 4.0 2.0 4.0 4.0 9.0 5.0 6.0 1.0 3.0 3.0 5.0 5.0 10.0 4.0 7.0 8.0 1.0 8.0 10.0 8.0 6.0 7.0 4.0 9.0 4.0 7.0 4.0 1.0 
2.0 1.0 2.0 2.0 5.0 1.0 6.0 1.0 9.0 5.0 -261.0 7.0 1.0 8.0 4.0 9.0 6.0 3.0 9.0 0.0 10.0 5.0 3.0 9.0 4.0 9.0 3.0 3.0 7.0 10.0 1.0 1.0 1.0 2.0 1.0 4.0 1.0 4.0 9.0 10.0 4.0 5.0 2.0 8.0 6.0 5.0 8.0 5.0 9.0 8.0 3.0 5.0 1.0 3.0 0.0 1.0 4.0 1.0 5.0 
4.0 8.0 10.0 7.0 6.0 7.0 6.0 5.0 2.0 4.0 7.0 -303.0 9.0 8.0 6.0 1.0 2.0 9.0 10.0 6.0 6.0 1.0 1.0 0.0 7.0 6.0 5.0 8.0 6.0 2.0 2.0 8.0 6.0 7.0 7.0 2.0 3.0 0.0 5.0 8.0 10.0 3.0 2.0 10.0 3.0 9.0 2.0 8.0 7.0 4.0 5.0 3.0 3.0 10.0 5.0 5.0 2.0 4.0 1.0 
10.0 6.0 3.0 6.0 2.0 5.0 0.0 6.0 0.0 0.0 1.0 9.0 -300.0 9.0 5.0 8.0 6.0 2.0 0.0 9.0 2.0 5.0 6.0 10.0 5.0 3.0 9.0 7.0 8.0 9.0 0.0 3.0 2.0 4.0 6.0 10.0 4.0 8.0 2.0 6.0 5.0 8.0 2.0 10.0 3.0 3.0 9.0 10.0 6.0 3.0 10.0 10.0 2.0 8.0 0.0 2.0 5.0 2.0 6.0 
0.0 8.0 1.0 1.0 6.0 3.0 1.0 3.0 6.0 6.0 8.0 8.0 9.0 -258.0 8.0 3.0 1.0 5.0 0.0 1.0 5.0 6.0 1.0 9.0 9.0 2.0 10.0 6.0 0.0 2.0 9.0 6.0 4.0 0.0 2.0 9.0 3.0 2.0 5.0 10.0 0.0 1.0 10.0 1.0 0.0 3.0 10.0 0.0 9.0 2.0 0.0 4.0 7.0 7.0 4.0 4.0 3.0 7.0 8.0 
7.0 8.0 6.0 1.0 8.0 5.0 5.0 3.0 7.0 8.0 4.0 6.0 5.0 8.0 -328.0 7.0 8.0 7.0 5.0 1.0 8.0 6.0 4.0 10.0 7.0 6.0 6.0 3.0 2.0 7.0 4.0 3.0 5.0 0.0 7.0 8.0 5.0 5.0 8.0 7.0 9.0 6.0 9.0 7.0 6.0 4.0 5.0 8.0 5.0 3.0 4.0 0.0 5.0 4.0 8.0 8.0 1.0 10.0 6.0 
8.0 8.0 5.0 9.0 6.0 7.0 1.0 0.0 1.0 7.0 9.0 1.0 8.0 3.0 7.0 -262.0 2.0 2.0 4.0 2.0 8.0 5.0 5.0 5.0 2.0 10.0 3.0 1.0 2.0 8.0 0.0 0.0 10.0 3.0 6.0 3.0 5.0 9.0 3.0 2.0 6.0 7.0 7.0 3.0 3.0 0.0 7.0 7.0 1.0 6.0 6.0 5.0 3.0 3.0 0.0 9.0 6.0 0.0 3.0 
5.0 6.0 0.0 6.0 5.0 6.0 9.0 6.0 1.0 1.0 6.0 2.0 6.0 1.0 8.0 2.0 -270.0 3.0 9.0 3.0 9.0 10.0 4.0 0.0 2.0 1.0 4.0 1.0 8.0 8.0 7.0 1.0 5.0 3.0 7.0 2.0 0.0 8.0 9.0 7.0 8.0 9.0 0.0 0.0 8.0 1.0 5.0 10.0 0.0 6.0 2.0 6.0 8.0 3.0 5.0 9.0 7.0 0.0 2.0 
10.0 5.0 2.0 0.0 10.0 5.0 8.0 1.0 3.0 10.0 3.0 9.0 2.0 5.0 7.0 2.0 3.0 -298.0 10.0 6.0 1.0 8.0 9.0 10.0 7.0 5.0 10.0 9.0 4.0 1.0 6.0 4.0 5.0 8.0 4.0 3.0 9.0 9.0 7.0 1.0 4.0 0.0 0.0 3.0 7.0 0.0 0.0 0.0 9.0 10.0 8.0 7.0 10.0 2.0 0.0 0.0 10.0 5.0 2.0 
4.0 3.0 2.0 3.0 8.0 8.0 5.0 10.0 0.0 0.0 9.0 10.0 0.0 0.0 5.0 4.0 9.0 10.0 -297.0 3.0 2.0 9.0 5.0 6.0 5.0 0.0 10.0 8.0 4.0 6.0 8.0 1.0 2.0 4.0 3.0 1.0 7.0 4.0 10.0 9.0 4.0 8.0 0.0 8.0 2.0 9.0 0.0 3.0 4.0 9.0 2.0 0.0 10.0 3.0 7.0 7.0 8.0 9.0 7.0 
8.0 7.0 7.0 4.0 9.0 0.0 1.0 4.0 10.0 1.0 0.0 6.0 9.0 1.0 1.0 2.0 3.0 6.0 3.0 -279.0 7.0 9.0 3.0 9.0 9.0 6.0 1.0 0.0 9.0 6.0 0.0 8.0 7.0 4.0 4.0 0.0 0.0 10.0 6.0 2.0 10.0 0.0 9.0 1.0 4.0 1.0 10.0 5.0 7.0 6.0 3.0 6.0 7.0 2.0 8.0 9.0 0.0 0.0 9.0 
10.0 4.0 7.0 6.0 3.0 3.0 4.0 10.0 7.0 9.0 10.0 6.0 2.0 5.0 8.0 8.0 9.0 1.0 2.0 7.0 -306.0 4.0 10.0 7.0 3.0 2.0 1.0 4.0 6.0 10.0 6.0 10.0 5.0 0.0 4.0 4.0 6.0 2.0 2.0 4.0 4.0 1.0 1.0 3.0 3.0 6.0 6.0 5.0 9.0 10.0 4.0 8.0 7.0 5.0 10.0 1.0 5.0 3.0 4.0 
3.0 9.0 1.0 3.0 9.0 7.0 4.0 3.0 8.0 7.0 5.0 1.0 5.0 6.0 6.0 5.0 10.0 8.0 9.0 9.0 4.0 -322.0 6.0 1.0 5.0 6.0 0.0 9.0 4.0 2.0 8.0 10.0 4.0 9.0 6.0 10.0 10.0 7.0 6.0 1.0 10.0 5.0 3.0 5.0 7.0 10.0 0.0 5.0 6.0 0.0 8.0 3.0 4.0 2.0 4.0 10.0 2.0 7.0 5.0 
5.0 1.0 6.0 7.0 0.0 0.0 6.0 9.0 5.0 7.0 3.0 1.0 6.0 1.0 4.0 5.0 4.0 9.0 5.0 3.0 10.0 6.0 -311.0 6.0 6.0 1.0 8.0 4.0 5.0 5.0 1.0 10.0 10.0 6.0 6.0 4.0 7.0 9.0 1.0 5.0 3.0 5.0 6.0 6.0 6.0 6.0 8.0 10.0 10.0 10.0 8.0 10.0 0.0 5.0 3.0 7.0 0.0 9.0 2.0 
5.0 2.0 6.0 4.0 5.0 8.0 6.0 4.0 1.0 0.0 9.0 0.0 10.0 9.0 10.0 5.0 0.0 10.0 6.0 9.0 7.0 1.0 6.0 -288.0 6.0 6.0 3.0 3.0 6.0 0.0 5.0 1.0 0.0 7.0 7.0 3.0 9.0 8.0 1.0 10.0 2.0 1.0 3.0 1.0 0.0 7.0 0.0 5.0 4.0 5.0 1.0 9.0 7.0 8.0 10.0 6.0 10.0 10.0 1.0 
10.0 6.0 4.0 8.0 1.0 1.0 4.0 0.0 1.0 4.0 4.0 7.0 5.0 9.0 7.0 2.0 2.0 7.0 5.0 9.0 3.0 5.0 6.0 6.0 -281.0 5.0 10.0 5.0 0.0 1.0 8.0 8.0 3.0 0.0 9.0 8.0 0.0 7.0 10.0 6.0 2.0 4.0 2.0 3.0 5.0 0.0 8.0 7.0 8.0 9.0 2.0 6.0 6.0 5.0 0.0 0.0 6.0 9.0 3.0 
10.0 2.0 1.0 6.0 0.0 5.0 8.0 9.0 6.0 6.0 9.0 6.0 3.0 2.0 6.0 10.0 1.0 5.0 0.0 6.0 2.0 6.0 1.0 6.0 5.0 -289.0 1.0 9.0 5.0 1.0 5.0 3.0 1.0 9.0 10.0 0.0 2.0 0.0 5.0 6.0 10.0 4.0 2.0 8.0 0.0 7.0 0.0 9.0 9.0 8.0 1.0 9.0 10.0 6.0 1.0 10.0 4.0 4.0 9.0 
6.0 6.0 0.0 10.0 7.0 7.0 0.0 9.0 10.0 2.0 3.0 5.0 9.0 10.0 6.0 3.0 4.0 10.0 10.0 1.0 1.0 0.0 8.0 3.0 10.0 1.0 -284.0 10.0 7.0 3.0 8.0 9.0 2.0 1.0 1.0 0.0 2.0 3.0 6.0 6.0 8.0 3.0 10.0 2.0 8.0 4.0 1.0 1.0 9.0 5.0 3.0 5.0 0.0 1.0 2.0 5.0 1.0 9.0 8.0 
6.0 6.0 7.0 1.0 7.0 6.0 1.0 9.0 7.0 8.0 3.0 8.0 7.0 6.0 3.0 1.0 1.0 9.0 8.0 0.0 4.0 9.0 4.0 3.0 5.0 9.0 10.0 -303.0 10.0 5.0 2.0 7.0 1.0 8.0 3.0 3.0 10.0 7.0 1.0 6.0 8.0 7.0 5.0 3.0 7.0 8.0 4.0 9.0 2.0 7.0 8.0 6.0 4.0 3.0 1.0 0.0 4.0 1.0 5.0 
9.0 6.0 7.0 8.0 1.0 6.0 8.0 5.0 3.0 7.0 7.0 6.0 8.0 0.0 2.0 2.0 8.0 4.0 4.0 9.0 6.0 4.0 5.0 6.0 0.0 5.0 7.0 10.0 -321.0 4.0 8.0 1.0 7.0 10.0 7.0 9.0 4.0 10.0 8.0 7.0 8.0 9.0 5.0 0.0 5.0 7.0 0.0 9.0 6.0 8.0 3.0 4.0 4.0 5.0 8.0 1.0 0.0 6.0 5.0 
9.0 8.0 7.0 4.0 8.0 5.0 3.0 5.0 6.0 4.0 10.0 2.0 9.0 2.0 7.0 8.0 8.0 1.0 6.0 6.0 10.0 2.0 5.0 0.0 1.0 1.0 3.0 5.0 4.0 -321.0 2.0 10.0 7.0 0.0 1.0 1.0 4.0 9.0 10.0 10.0 2.0 6.0 8.0 4.0 9.0 8.0 9.0 0.0 10.0 7.0 2.0 7.0 8.0 7.0 4.0 1.0 9.0 9.0 8.0 
9.0 8.0 10.0 1.0 9.0 9.0 4.0 7.0 9.0 3.0 1.0 2.0 0.0 9.0 4.0 0.0 7.0 6.0 8.0 0.0 6.0 8.0 1.0 5.0 8.0 5.0 8.0 2.0 8.0 2.0 -299.0 2.0 2.0 2.0 0.0 0.0 0.0 9.0 5.0 3.0 9.0 7.0 7.0 6.0 2.0 10.0 6.0 9.0 5.0 10.0 3.0 2.0 4.0 5.0 8.0 0.0 7.0 10.0 7.0 
6.0 3.0 8.0 5.0 1.0 9.0 6.0 2.0 10.0 4.0 1.0 8.0 3.0 6.0 3.0 0.0 1.0 4.0 1.0 8.0 10.0 10.0 10.0 1.0 8.0 3.0 9.0 7.0 1.0 10.0 2.0 -299.0 7.0 9.0 1.0 0.0 9.0 1.0 1.0 5.0 8.0 4.0 5.0 1.0 10.0 2.0 7.0 5.0 8.0 7.0 3.0 8.0 4.0 7.0 2.0 4.0 7.0 10.0 4.0 
9.0 10.0 6.0 9.0 7.0 4.0 5.0 1.0 6.0 2.0 1.0 6.0 2.0 4.0 5.0 10.0 5.0 5.0 2.0 7.0 5.0 4.0 10.0 0.0 3.0 1.0 2.0 1.0 7.0 7.0 2.0 7.0 -264.0 9.0 10.0 0.0 6.0 7.0 0.0 1.0 1.0 8.0 2.0 6.0 4.0 2.0 2.0 10.0 6.0 4.0 0.0 5.0 4.0 1.0 0.0 7.0 7.0 6.0 1.0 
8.0 3.0 6.0 1.0 4.0 8.0 10.0 6.0 3.0 4.0 2.0 7.0 4.0 0.0 0.0 3.0 3.0 8.0 4.0 4.0 0.0 9.0 6.0 7.0 0.0 9.0 1.0 8.0 10.0 0.0 2.0 9.0 9.0 -293.0 8.0 9.0 1.0 3.0 10.0 1.0 0.0 2.0 5.0 0.0 4.0 7.0 6.0 7.0 6.0 10.0 9.0 9.0 7.0 10.0 10.0 4.0 3.0 2.0 2.0 
6.0 9.0 5.0 10.0 6.0 7.0 2.0 8.0 8.0 4.0 1.0 7.0 6.0 2.0 7.0 6.0 7.0 4.0 3.0 4.0 4.0 6.0 6.0 7.0 9.0 10.0 1.0 3.0 7.0 1.0 0.0 1.0 10.0 8.0 -353.0 9.0 7.0 4.0 6.0 8.0 1.0 10.0 10.0 9.0 4.0 10.0 10.0 6.0 4.0 10.0 4.0 7.0 7.0 9.0 8.0 8.0 9.0 5.0 3.0 
0.0 2.0 8.0 9.0 9.0 6.0 0.0 3.0 10.0 9.0 4.0 2.0 10.0 9.0 8.0 3.0 2.0 3.0 1.0 0.0 4.0 10.0 4.0 3.0 8.0 0.0 0.0 3.0 9.0 1.0 0.0 0.0 0.0 9.0 9.0 -258.0 6.0 3.0 2.0 2.0 4.0 7.0 2.0 5.0 3.0 8.0 2.0 1.0 10.0 6.0 7.0 2.0 0.0 0.0 8.0 5.0 3.0 7.0 7.0 
9.0 3.0 9.0 6.0 4.0 7.0 3.0 8.0 10.0 5.0 1.0 3.0 4.0 3.0 5.0 5.0 0.0 9.0 7.0 0.0 6.0 10.0 7.0 9.0 0.0 2.0 2.0 10.0 4.0 4.0 0.0 9.0 6.0 1.0 7.0 6.0 -285.0 4.0 5.0 7.0 2.0 3.0 6.0 6.0 0.0 7.0 10.0 9.0 3.0 8.0 8.0 5.0 5.0 1.0 1.0 2.0 9.0 0.0 0.0 
0.0 8.0 2.0 7.0 5.0 9.0 6.0 7.0 7.0 6.0 4.0 0.0 8.0 2.0 5.0 9.0 8.0 9.0 4.0 10.0 2.0 7.0 9.0 8.0 7.0 0.0 3.0 7.0 10.0 9.0 9.0 1.0 7.0 3.0 4.0 3.0 4.0 -305.0 4.0 3.0 9.0 0.0 7.0 2.0 4.0 8.0 0.0 3.0 8.0 2.0 6.0 5.0 1.0 9.0 3.0 1.0 8.0 8.0 5.0 
4.0 5.0 5.0 0.0 2.0 1.0 10.0 0.0 6.0 1.0 9.0 5.0 2.0 5.0 8.0 3.0 9.0 7.0 10.0 6.0 2.0 6.0 1.0 1.0 10.0 5.0 6.0 1.0 8.0 10.0 5.0 1.0 0.0 10.0 6.0 2.0 5.0 4.0 -270.0 3.0 6.0 2.0 7.0 9.0 8.0 6.0 8.0 0.0 0.0 1.0 3.0 1.0 9.0 7.0 3.0 1.0 2.0 9.0 4.0 
2.0 4.0 6.0 4.0 10.0 5.0 2.0 1.0 3.0 3.0 10.0 8.0 6.0 10.0 7.0 2.0 7.0 1.0 9.0 2.0 4.0 1.0 5.0 10.0 6.0 6.0 6.0 6.0 7.0 10.0 3.0 5.0 1.0 1.0 8.0 2.0 7.0 3.0 3.0 -295.0 7.0 3.0 5.0 7.0 4.0 1.0 6.0 10.0 7.0 5.0 3.0 0.0 9.0 5.0 3.0 4.0 5.0 6.0 9.0 
10.0 8.0 5.0 1.0 9.0 0.0 3.0 5.0 9.0 3.0 4.0 10.0 5.0 0.0 9.0 6.0 8.0 4.0 4.0 10.0 4.0 10.0 3.0 2.0 2.0 10.0 8.0 8.0 8.0 2.0 9.0 8.0 1.0 0.0 1.0 4.0 2.0 9.0 6.0 7.0 -311.0 9.0 7.0 2.0 7.0 6.0 0.0 9.0 3.0 0.0 2.0 1.0 10.0 9.0 0.0 5.0 9.0 9.0 6.0 
8.0 9.0 0.0 1.0 0.0 5.0 4.0 1.0 0.0 5.0 5.0 3.0 8.0 1.0 6.0 7.0 9.0 0.0 8.0 0.0 1.0 5.0 5.0 1.0 4.0 4.0 3.0 7.0 9.0 6.0 7.0 4.0 8.0 2.0 10.0 7.0 3.0 0.0 2.0 3.0 9.0 -269.0 5.0 0.0 7.0 4.0 1.0 10.0 5.0 1.0 1.0 5.0 10.0 3.0 9.0 5.0 3.0 10.0 10.0 
0.0 1.0 8.0 7.0 5.0 9.0 8.0 1.0 7.0 5.0 2.0 2.0 2.0 10.0 9.0 7.0 0.0 0.0 0.0 9.0 1.0 3.0 6.0 3.0 2.0 2.0 10.0 5.0 5.0 8.0 7.0 5.0 2.0 5.0 10.0 2.0 6.0 7.0 7.0 5.0 7.0 5.0 -294.0 10.0 3.0 3.0 8.0 4.0 7.0 2.0 10.0 3.0 6.0 2.0 6.0 10.0 10.0 4.0 1.0 
7.0 3.0 9.0 2.0 8.0 8.0 5.0 6.0 3.0 10.0 8.0 10.0 10.0 1.0 7.0 3.0 0.0 3.0 8.0 1.0 3.0 5.0 6.0 1.0 3.0 8.0 2.0 3.0 0.0 4.0 6.0 1.0 6.0 0.0 9.0 5.0 6.0 2.0 9.0 7.0 2.0 0.0 10.0 -271.0 1.0 8.0 7.0 8.0 5.0 8.0 1.0 0.0 0.0 1.0 5.0 3.0 0.0 8.0 6.0 
3.0 7.0 3.0 4.0 0.0 4.0 3.0 5.0 3.0 4.0 6.0 3.0 3.0 0.0 6.0 3.0 8.0 7.0 2.0 4.0 3.0 7.0 6.0 0.0 5.0 0.0 8.0 7.0 5.0 9.0 2.0 10.0 4.0 4.0 4.0 3.0 0.0 4.0 8.0 4.0 7.0 7.0 3.0 1.0 -252.0 8.0 2.0 0.0 4.0 0.0 6.0 9.0 1.0 5.0 4.0 4.0 4.0 8.0 8.0 
7.0 2.0 8.0 2.0 3.0 4.0 10.0 7.0 3.0 7.0 5.0 9.0 3.0 3.0 4.0 0.0 1.0 0.0 9.0 1.0 6.0 10.0 6.0 7.0 0.0 7.0 4.0 8.0 7.0 8.0 10.0 2.0 2.0 7.0 10.0 8.0 7.0 8.0 6.0 1.0 6.0 4.0 3.0 8.0 8.0 -314.0 9.0 9.0 3.0 1.0 5.0 2.0 8.0 1.0 9.0 10.0 4.0 6.0 6.0 
8.0 1.0 10.0 0.0 8.0 5.0 1.0 7.0 8.0 8.0 8.0 2.0 9.0 10.0 5.0 7.0 5.0 0.0 0.0 10.0 6.0 0.0 8.0 0.0 8.0 0.0 1.0 4.0 0.0 9.0 6.0 7.0 2.0 6.0 10.0 2.0 10.0 0.0 8.0 6.0 0.0 1.0 8.0 7.0 2.0 9.0 -285.0 3.0 2.0 2.0 1.0 6.0 9.0 7.0 5.0 0.0 6.0 6.0 6.0 
6.0 5.0 0.0 8.0 8.0 7.0 4.0 3.0 7.0 1.0 5.0 8.0 10.0 0.0 8.0 7.0 10.0 0.0 3.0 5.0 5.0 5.0 10.0 5.0 7.0 9.0 1.0 9.0 9.0 0.0 9.0 5.0 10.0 7.0 6.0 1.0 9.0 3.0 0.0 10.0 9.0 10.0 4.0 8.0 0.0 9.0 3.0 -306.0 5.0 4.0 0.0 0.0 7.0 1.0 8.0 1.0 2.0 5.0 5.0 
6.0 1.0 0.0 3.0 9.0 7.0 7.0 2.0 0.0 8.0 9.0 7.0 6.0 9.0 5.0 1.0 0.0 9.0 4.0 7.0 9.0 6.0 10.0 4.0 8.0 9.0 9.0 2.0 6.0 10.0 5.0 8.0 6.0 6.0 4.0 10.0 3.0 8.0 0.0 7.0 3.0 5.0 7.0 5.0 4.0 3.0 2.0 5.0 -311.0 7.0 9.0 4.0 4.0 1.0 8.0 2.0 7.0 2.0 3.0 
3.0 6.0 6.0 10.0 9.0 5.0 9.0 1.0 5.0 10.0 8.0 4.0 3.0 2.0 3.0 6.0 6.0 10.0 9.0 6.0 10.0 0.0 10.0 5.0 9.0 8.0 5.0 7.0 8.0 7.0 10.0 7.0 4.0 10.0 10.0 6.0 8.0 2.0 1.0 5.0 0.0 1.0 2.0 8.0 0.0 1.0 2.0 4.0 7.0 -328.0 1.0 10.0 10.0 3.0 2.0 1.0 7.0 6.0 10.0 
0.0 1.0 3.0 9.0 5.0 7.0 7.0 0.0 10.0 8.0 3.0 5.0 10.0 0.0 4.0 6.0 2.0 8.0 2.0 3.0 4.0 8.0 8.0 1.0 2.0 1.0 3.0 8.0 3.0 2.0 3.0 3.0 0.0 9.0 4.0 7.0 8.0 6.0 3.0 3.0 2.0 1.0 10.0 1.0 6.0 5.0 1.0 0.0 9.0 1.0 -259.0 7.0 10.0 5.0 5.0 7.0 3.0 6.0 1.0 
8.0 1.0 8.0 6.0 3.0 9.0 2.0 9.0 2.0 6.0 5.0 3.0 10.0 4.0 0.0 5.0 6.0 7.0 0.0 6.0 8.0 3.0 10.0 9.0 6.0 9.0 5.0 6.0 4.0 7.0 2.0 8.0 5.0 9.0 7.0 2.0 5.0 5.0 1.0 0.0 1.0 5.0 3.0 0.0 9.0 2.0 6.0 0.0 4.0 10.0 7.0 -301.0 10.0 5.0 9.0 1.0 8.0 3.0 7.0 
1.0 1.0 3.0 7.0 1.0 2.0 0.0 8.0 3.0 7.0 1.0 3.0 2.0 7.0 5.0 3.0 8.0 10.0 10.0 7.0 7.0 4.0 0.0 7.0 6.0 10.0 0.0 4.0 4.0 8.0 4.0 4.0 4.0 7.0 7.0 0.0 5.0 1.0 9.0 9.0 10.0 10.0 6.0 0.0 1.0 8.0 9.0 7.0 4.0 10.0 10.0 10.0 -290.0 1.0 4.0 2.0 5.0 2.0 2.0 
2.0 0.0 6.0 4.0 1.0 9.0 10.0 1.0 8.0 4.0 3.0 10.0 8.0 7.0 4.0 3.0 3.0 2.0 3.0 2.0 5.0 2.0 5.0 8.0 5.0 6.0 1.0 3.0 5.0 7.0 5.0 7.0 1.0 10.0 9.0 0.0 1.0 9.0 7.0 5.0 9.0 3.0 2.0 1.0 5.0 1.0 7.0 1.0 1.0 3.0 5.0 5.0 1.0 -263.0 10.0 7.0 9.0 2.0 0.0 
2.0 0.0 6.0 10.0 10.0 3.0 5.0 7.0 1.0 9.0 0.0 5.0 0.0 4.0 8.0 0.0 5.0 0.0 7.0 8.0 10.0 4.0 3.0 10.0 0.0 1.0 2.0 1.0 8.0 4.0 8.0 2.0 0.0 10.0 8.0 8.0 1.0 3.0 3.0 3.0 0.0 9.0 6.0 5.0 4.0 9.0 5.0 8.0 8.0 2.0 5.0 9.0 4.0 10.0 -277.0 5.0 3.0 4.0 2.0 
3.0 0.0 9.0 8.0 2.0 4.0 7.0 7.0 7.0 4.0 1.0 5.0 2.0 4.0 8.0 9.0 9.0 0.0 7.0 9.0 1.0 10.0 7.0 6.0 0.0 10.0 5.0 0.0 1.0 1.0 0.0 4.0 7.0 4.0 8.0 5.0 2.0 1.0 1.0 4.0 5.0 5.0 10.0 3.0 4.0 10.0 0.0 1.0 2.0 1.0 7.0 1.0 2.0 7.0 5.0 -260.0 9.0 5.0 1.0 
5.0 0.0 9.0 8.0 8.0 5.0 2.0 3.0 6.0 7.0 4.0 2.0 5.0 3.0 1.0 6.0 7.0 10.0 8.0 0.0 5.0 2.0 0.0 10.0 6.0 4.0 1.0 4.0 0.0 9.0 7.0 7.0 7.0 3.0 9.0 3.0 9.0 8.0 2.0 5.0 9.0 3.0 10.0 0.0 4.0 4.0 6.0 2.0 7.0 7.0 3.0 8.0 5.0 9.0 3.0 9.0 -298.0 0.0 9.0 
5.0 0.0 0.0 8.0 1.0 3.0 1.0 2.0 7.0 4.0 1.0 4.0 2.0 7.0 10.0 0.0 0.0 5.0 9.0 0.0 3.0 7.0 9.0 10.0 9.0 4.0 9.0 1.0 6.0 9.0 10.0 10.0 6.0 2.0 5.0 7.0 0.0 8.0 9.0 6.0 9.0 10.0 4.0 8.0 8.0 6.0 6.0 5.0 2.0 6.0 6.0 3.0 2.0 2.0 4.0 5.0 0.0 -295.0 10.0 
9.0 0.0 6.0 0.0 5.0 6.0 8.0 5.0 9.0 1.0 5.0 1.0 6.0 8.0 6.0 3.0 2.0 2.0 7.0 9.0 4.0 5.0 2.0 1.0 3.0 9.0 8.0 5.0 5.0 8.0 7.0 4.0 1.0 2.0 3.0 7.0 0.0 5.0 4.0 9.0 6.0 10.0 1.0 6.0 8.0 6.0 6.0 5.0 3.0 10.0 1.0 7.0 2.0 0.0 2.0 1.0 9.0 10.0 -283.0 

